networks/zoo_99_491/zoo_99_491.txt
Number of groups: 59
Flow 6: {9 31} {31 23} {23 73} 
Flow 46: {6 9} {9 59} 
Flow 48: {7 3} {3 4} {4 54} 
Flow 62: {2 1} {1 51} 
Flow 68: {8 7} {7 57} 
Flow 69: {9 5} {5 8} {8 58} 
Flow 72: {31 13} {13 63} 
Flow 73: {14 64} 
Flow 80: {21 22} {22 72} 
Flow 83: {39 38} {38 26} {26 28} {28 27} {27 77} 
Flow 90: {36 35} {35 85} 
Flow 96: {48 47} {47 43} {43 93} 
Flow 104: {10 5} {5 9} {9 48} {48 46} {46 15} 
Flow 106: {10 33} {33 39} 
Flow 108: {13 31} 
Flow 123: {23 38} {38 88} 
Flow 129: {15 14} {14 31} {31 39} {39 89} 
Flow 137: {17 18} {18 19} {19 20} 
Flow 138: {30 29} {29 79} 
Flow 147: {17 16} {16 15} {15 43} {43 47} {47 97} 
Flow 149: {15 46} {46 48} {48 49} {49 99} 
Flow 160: {18 17} {17 67} 
Flow 162: {22 29} 
Flow 163: {21 27} {27 30} {30 80} 
Flow 165: {28 26} {26 38} {38 39} {39 33} {33 83} 
Flow 194: {2 4} {4 3} {3 53} 
Flow 197: {20 31} {31 9} {9 6} {6 56} 
Flow 203: {19 18} {18 68} 
Flow 204: {20 19} {19 69} 
Flow 205: {25 20} {20 70} 
Flow 209: {12 24} 
Flow 219: {3 42} {42 92} 
Flow 243: {29 30} {30 27} {27 28} {28 25} 
Flow 272: {20 12} {12 11} {11 61} 
Flow 281: {27 21} {21 71} 
Flow 295: {4 50} {50 41} {41 91} 
Flow 310: {32 31} {31 20} {20 25} {25 28} {28 78} 
Flow 313: {32 9} {9 39} 
Flow 331: {35 34} {34 33} 
Flow 332: {35 36} {36 9} 
Flow 334: {37 9} {9 2} {2 52} 
Flow 341: {37 31} {31 81} 
Flow 350: {12 62} 
Flow 356: {31 24} {24 74} 
Flow 361: {38 23} {23 31} {31 32} 
Flow 366: {47 44} {44 94} 
Flow 367: {43 45} {45 95} 
Flow 368: {46 96} 
Flow 388: {39 9} {9 32} {32 82} 
Flow 399: {40 33} {33 9} 
Flow 400: {40 39} {39 31} {31 14} {14 15} {15 65} 
Flow 410: {50 4} {4 2} {2 9} {9 33} 
Flow 416: {42 3} {3 7} {7 8} {8 5} {5 55} 
Flow 425: {42 41} {41 50} {50 49} {49 48} {48 98} 
Flow 430: {44 45} {45 43} {43 15} {15 16} {16 17} 
Flow 434: {44 47} {47 48} 
Flow 454: {41 42} 
Flow 454: {49 50} 
Flow 477: {48 9} {9 36} {36 86} 
Time taken running everything: 12 seconds
